/* WeighIt Production Problem- Dual- Assignment 3 */

/* Objective Function */
Min : 750 y1 + 900 y2 + 450 y3 + 13000 y4 + 12000 y5 + 5000 y6 + 900 y7 + 1200 y8 + 750 y9;

/* Constraints */
y1 + 20 y4 + y7 + 900 y10 + 450 y11 >= 420;
y1 + 15 y4 + y8 + 900 y10 + 450 y11 >= 360;
y1 + 12 y4 + y9 + 900 y10 + 450 y11 >= 300;
y2 + 20 y5 + y7 - 750 y10 >= 420;
y2 + 15 y5 + y8 - 750 y10 >= 360;
y2 + 12 y5 + y9 - 750 y10 >= 300;
y3 + 20 y6 + y7 - 750 y11 >= 420;
y3 + 15 y6 + y8 - 750 y11 >= 360;
y3 + 12 y6 + y9 - 750 y11 >= 300;